<number of tasks>
25

<cycle time>
25

<task times>
1 4
2 3
3 9
4 5
5 9
6 4
7 8
8 7
9 5
10 1
11 3
12 1
13 5
14 3
15 5
16 3
17 13
18 5
19 2
20 3
21 7
22 5
23 3
24 8
25 4

<precedence relations>
1,3
2,3
3,4
4,5
4,8
5,6
6,7
6,10
7,11
7,12
8,9
8,11
9,10
9,13
11,13
12,15
13,14
14,16
14,19
14,20
15,17
15,22
16,18
17,18
17,23
18,25
19,22
20,21
20,25
21,22
21,24
23,25

<setup times forward>
4,5:1
5,8:1
5,9:1
6,8:1
6,9:1
7,8:1
7,9:1
7,11:1
8,5:1
8,6:1
8,7:1
8,12:1
8,15:1
8,17:1
9,5:1
9,6:1
9,7:1
9,10:1
9,12:1
9,15:1
9,17:1
10,11:1
10,13:1
10,14:1
10,18:1
10,19:1
10,22:1
10,23:1
10,24:1
10,25:1
11,10:1
11,12:1
11,15:1
11,17:1
12,8:1
12,9:1
12,11:1
12,13:1
12,14:1
12,19:1
12,24:1
13,10:1
13,12:1
13,15:1
13,17:1
14,10:1
14,12:1
14,15:1
14,16:1
14,17:1
14,20:1
15,8:1
15,9:1
15,11:1
15,13:1
15,14:1
15,19:1
15,22:1
15,24:1
16,18:1
16,19:1
16,22:1
16,23:1
16,24:1
17,8:1
17,9:1
17,11:1
17,13:1
17,14:1
17,18:1
17,19:1
17,22:1
17,23:1
17,24:1
18,10:1
18,20:1
18,21:1
19,10:1
19,12:1
19,15:1
19,16:1
19,17:1
19,20:1
19,21:1
20,18:1
20,19:1
20,23:1
20,25:1
21,18:1
21,19:1
21,22:1
21,23:1
21,24:1
21,25:1
22,10:1
22,16:1
22,17:1
23,10:1
23,16:1
23,20:1
23,21:1
24,10:1
24,12:1
24,15:1
24,16:1
24,17:1
25,10:1
25,21:1

<setup times backward>
5,1:1
5,2:1
5,3:1
5,4:1
5,8:1
5,9:1
6,1:1
6,2:1
6,3:1
6,4:1
6,8:1
6,9:1
7,1:1
7,2:1
7,3:1
7,4:1
7,8:1
7,9:1
10,1:1
10,2:1
10,3:1
10,4:1
10,8:1
10,9:1
10,11:1
10,13:1
10,14:1
10,18:1
10,19:1
10,22:1
10,23:1
10,24:1
10,25:1
12,1:1
12,2:1
12,3:1
12,4:1
12,8:1
12,9:1
12,11:1
12,13:1
12,14:1
12,19:1
12,24:1
15,1:1
15,2:1
15,3:1
15,4:1
15,8:1
15,9:1
15,11:1
15,13:1
15,14:1
15,19:1
15,24:1
16,1:1
16,2:1
16,3:1
16,4:1
16,8:1
16,9:1
16,11:1
16,13:1
16,14:1
16,19:1
16,22:1
16,23:1
16,24:1
17,1:1
17,2:1
17,3:1
17,4:1
17,8:1
17,9:1
17,11:1
17,13:1
17,14:1
17,19:1
17,22:1
17,24:1
20,1:1
20,2:1
20,3:1
20,4:1
20,8:1
20,9:1
20,11:1
20,13:1
20,14:1
20,18:1
20,19:1
20,23:1
21,1:1
21,2:1
21,3:1
21,4:1
21,8:1
21,9:1
21,11:1
21,13:1
21,14:1
21,18:1
21,19:1
21,23:1
21,25:1

<end>

<optimal SALBP-1 value>
6


<rand seed>
467321153

